\ Model prob_83
\ LP format - for model browsing. Use MPS format to capture full model detail.
Minimize
  151000 open[0] + 192000 open[1] + 114000 open[2] + 171000 open[3]
   + 5 x[0,0] + 5 x[0,1] + 2 x[0,2] + 3 x[0,3] + 3 x[0,4] + 3 x[0,5]
   + 5 x[1,0] + 4 x[1,1] + 3 x[1,2] + 5 x[1,3] + 2 x[1,4] + 4 x[1,5]
   + 2 x[2,0] + 4 x[2,1] + 5 x[2,2] + x[2,3] + 4 x[2,4] + 2 x[2,5]
   + 5 x[3,0] + 4 x[3,1] + x[3,2] + x[3,3] + 3 x[3,4] + 3 x[3,5]
Subject To
 R0: x[0,0] + x[1,0] + x[2,0] + x[3,0] >= 910
 R1: x[0,1] + x[1,1] + x[2,1] + x[3,1] >= 875
 R2: x[0,2] + x[1,2] + x[2,2] + x[3,2] >= 589
 R3: x[0,3] + x[1,3] + x[2,3] + x[3,3] >= 962
 R4: x[0,4] + x[1,4] + x[2,4] + x[3,4] >= 966
 R5: x[0,5] + x[1,5] + x[2,5] + x[3,5] >= 643
 R6: - 1631 open[0] + x[0,0] + x[0,1] + x[0,2] + x[0,3] + x[0,4] + x[0,5]
   <= 0
 R7: - 1954 open[1] + x[1,0] + x[1,1] + x[1,2] + x[1,3] + x[1,4] + x[1,5]
   <= 0
 R8: - 1446 open[2] + x[2,0] + x[2,1] + x[2,2] + x[2,3] + x[2,4] + x[2,5]
   <= 0
 R9: - 820 open[3] + x[3,0] + x[3,1] + x[3,2] + x[3,3] + x[3,4] + x[3,5]
   <= 0
Bounds
Binaries
 open[0] open[1] open[2] open[3]
End
